p cnf 181 314
-1 25 45 70 85 91 92 96 108 117 143 165 -2 172 0 
-3 61 173 0 
-4 43 82 86 116 124 125 145 156 -2 172 0 
-5 -2 173 0 
-6 174 0 
-7 -8 22 172 0 
-9 -6 172 0 
-10 173 0 
-10 172 0 
-11 -6 172 0 
-11 -6 173 0 
-12 -13 -6 175 0 
-14 -15 88 164 -6 172 0 
-16 39 60 64 66 83 84 126 146 -6 175 0 
-17 35 44 68 -16 39 60 64 66 83 84 126 146 -18 19 -6 175 0 
-6 173 0 
-6 172 0 
-19 18 -20 -6 173 0 
-9 -6 173 0 
-21 172 0 
-21 173 0 
-22 8 173 0 
-23 33 -6 174 0 
-24 40 174 0 
-25 1 45 70 85 91 92 96 108 117 143 165 173 0 
-26 28 34 47 58 65 69 80 98 100 109 118 132 141 171 172 0 
-27 55 57 144 173 0 
-27 55 57 144 172 0 
-22 8 174 0 
-28 26 34 47 58 65 69 80 98 100 109 118 132 141 171 172 0 
-29 77 174 0 
-30 174 0 
-31 172 0 
-32 42 72 73 78 107 120 129 131 133 147 149 166 173 0 
-1 25 45 70 85 91 92 96 108 117 143 165 173 0 
-1 25 45 70 85 91 92 96 108 117 143 165 172 0 
-33 23 -34 26 28 47 58 65 69 80 98 100 109 118 132 141 171 172 0 
-31 176 0 
-35 17 44 68 174 0 
-34 26 28 47 58 65 69 80 98 100 109 118 132 141 171 173 0 
-36 174 0 
-37 -1 25 45 70 85 91 92 96 108 117 143 165 173 0 
-38 177 178 0 
-29 77 176 0 
-39 16 60 64 66 83 84 126 146 -1 25 45 70 85 91 92 96 108 117 143 165 177 178 0 
-32 42 72 73 78 107 120 129 131 133 147 149 166 172 0 
-34 26 28 47 58 65 69 80 98 100 109 118 132 141 171 177 178 0 
-40 24 176 0 
-39 16 60 64 66 83 84 126 146 176 0 
-34 26 28 47 58 65 69 80 98 100 109 118 132 141 171 172 0 
-41 161 177 178 0 
-42 32 72 73 78 107 120 129 131 133 147 149 166 177 178 0 
-1 25 45 70 85 91 92 96 108 117 143 165 177 178 0 
-43 4 82 86 116 124 125 145 156 -34 26 28 47 58 65 69 80 98 100 109 118 132 141 171 177 178 0 
-44 17 35 68 176 0 
-37 176 0 
-22 8 176 0 
-32 42 72 73 78 107 120 129 131 133 147 149 166 176 0 
-45 1 25 70 85 91 92 96 108 117 143 165 177 178 0 
-46 172 0 
-47 26 28 34 58 65 69 80 98 100 109 118 132 141 171 177 178 0 
-48 174 0 
-49 -32 42 72 73 78 107 120 129 131 133 147 149 166 172 0 
-50 74 135 177 178 0 
-51 -52 54 63 76 81 110 177 178 0 
-53 62 173 0 
-52 54 63 76 81 110 177 178 0 
-54 52 63 76 81 110 172 0 
-29 77 -52 54 63 76 81 110 177 178 0 
-55 27 57 144 172 0 
-56 -52 54 63 76 81 110 177 178 0 
-52 54 63 76 81 110 172 0 
-53 62 172 0 
-57 27 55 144 172 0 
-37 -34 26 28 47 58 65 69 80 98 100 109 118 132 141 171 172 0 
-49 -34 26 28 47 58 65 69 80 98 100 109 118 132 141 171 173 0 
-58 26 28 34 47 65 69 80 98 100 109 118 132 141 171 177 178 0 
-59 174 0 
-60 16 39 64 66 83 84 126 146 -61 3 174 0 
-62 53 177 178 0 
-63 52 54 76 81 110 177 178 0 
-63 52 54 76 81 110 179 178 0 
-22 8 -1 25 45 70 85 91 92 96 108 117 143 165 172 0 
-34 26 28 47 58 65 69 80 98 100 109 118 132 141 171 -1 25 45 70 85 91 92 96 108 117 143 165 172 0 
-33 23 -64 16 39 60 66 83 84 126 146 177 178 0 
-29 77 -1 25 45 70 85 91 92 96 108 117 143 165 177 178 0 
-34 26 28 47 58 65 69 80 98 100 109 118 132 141 171 -32 42 72 73 78 107 120 129 131 133 147 149 166 177 178 0 
-34 26 28 47 58 65 69 80 98 100 109 118 132 141 171 -1 25 45 70 85 91 92 96 108 117 143 165 177 178 0 
-22 8 -1 25 45 70 85 91 92 96 108 117 143 165 173 0 
-40 24 -39 16 60 64 66 83 84 126 146 173 0 
-65 26 28 34 47 58 69 80 98 100 109 118 132 141 171 177 178 0 
-49 -66 16 39 60 64 83 84 126 146 173 0 
-14 -67 154 155 163 173 0 
-68 17 35 44 -33 23 172 0 
-69 26 28 34 47 58 65 80 98 100 109 118 132 141 171 173 0 
-29 77 -16 39 60 64 66 83 84 126 146 177 178 0 
-24 40 -70 1 25 45 85 91 92 96 108 117 143 165 177 178 0 
-71 174 0 
-31 -72 32 42 73 78 107 120 129 131 133 147 149 166 174 0 
-29 77 -73 32 42 72 78 107 120 129 131 133 147 149 166 173 0 
-37 -74 50 135 174 0 
-22 8 -75 172 0 
-8 22 -24 40 176 0 
-76 52 54 63 81 110 -77 29 172 0 
-78 32 42 72 73 107 120 129 131 133 147 149 166 -24 40 176 0 
-75 -79 153 172 0 
-37 -75 177 178 0 
-75 177 178 0 
-22 8 -40 24 177 178 0 
-68 17 35 44 -40 24 172 0 
-68 17 35 44 -40 24 173 0 
-80 26 28 34 47 58 65 69 98 100 109 118 132 141 171 173 0 
-31 -81 52 54 63 76 110 177 178 0 
-81 52 54 63 76 110 -40 24 177 178 0 
-65 26 28 34 47 58 69 80 98 100 109 118 132 141 171 173 0 
-33 23 -39 16 60 64 66 83 84 126 146 173 0 
-33 23 -82 4 43 86 116 124 125 145 156 173 0 
-22 8 -41 161 173 0 
-65 26 28 34 47 58 69 80 98 100 109 118 132 141 171 172 0 
-83 16 39 60 64 66 84 126 146 172 0 
-40 24 -84 16 39 60 64 66 83 126 146 173 0 
-31 -42 32 72 73 78 107 120 129 131 133 147 149 166 173 0 
-22 8 -38 173 0 
-38 172 0 
-38 173 0 
-85 1 25 45 70 91 92 96 108 117 143 165 -16 39 60 64 66 83 84 126 146 177 178 0 
-49 -64 16 39 60 66 83 84 126 146 173 0 
-41 161 172 0 
-40 24 -86 4 43 82 116 124 125 145 156 173 0 
-27 55 57 144 179 178 0 
-87 174 0 
-88 15 164 -6 172 0 
-88 15 164 -6 173 0 
-89 90 168 172 0 
-56 173 0 
-90 89 168 173 0 
-91 1 25 45 70 85 92 96 108 117 143 165 173 0 
-91 1 25 45 70 85 92 96 108 117 143 165 172 0 
-92 1 25 45 70 85 91 96 108 117 143 165 -22 8 175 0 
-93 176 0 
-23 33 176 0 
-33 23 176 0 
-41 161 176 0 
-94 -91 1 25 45 70 85 92 96 108 117 143 165 175 0 
-95 -93 175 0 
-96 1 25 45 70 85 91 92 108 117 143 165 172 0 
-97 -48 174 0 
-22 8 -98 26 28 34 47 58 65 69 80 100 109 118 132 141 171 -96 1 25 45 70 85 91 92 108 117 143 165 172 0 
-73 32 42 72 78 107 120 129 131 133 147 149 166 177 178 0 
-99 -97 174 0 
-100 26 28 34 47 58 65 69 80 98 109 118 132 141 171 177 178 0 
-29 77 -24 40 -69 26 28 34 47 58 65 80 98 100 109 118 132 141 171 173 0 
-73 32 42 72 78 107 120 129 131 133 147 149 166 180 178 0 
-49 -41 161 172 0 
-37 174 0 
-23 33 175 0 
-90 89 168 172 0 
-101 174 0 
-4 43 82 86 116 124 125 145 156 173 0 
-102 174 0 
-103 105 137 167 173 0 
-104 172 0 
-18 19 174 0 
-83 16 39 60 64 66 84 126 146 173 0 
-23 33 174 0 
-105 103 137 167 172 0 
-1 25 45 70 85 91 92 96 108 117 143 165 -106 172 0 
-107 32 42 72 73 78 120 129 131 133 147 149 166 173 0 
-107 32 42 72 73 78 120 129 131 133 147 149 166 172 0 
-108 1 25 45 70 85 91 92 96 117 143 165 172 0 
-29 77 -34 26 28 47 58 65 69 80 98 100 109 118 132 141 171 172 0 
-40 24 -32 42 72 73 78 107 120 129 131 133 147 149 166 173 0 
-109 26 28 34 47 58 65 69 80 98 100 118 132 141 171 175 0 
-95 -93 172 0 
-110 52 54 63 76 81 173 0 
-111 173 0 
-112 172 0 
-94 -93 173 0 
-110 52 54 63 76 81 172 0 
-12 -20 175 0 
-113 -20 172 0 
-114 177 178 0 
-97 174 0 
-115 174 0 
-22 8 -1 25 45 70 85 91 92 96 108 117 143 165 177 178 0 
-40 24 -116 4 43 82 86 124 125 145 156 172 0 
-40 24 -82 4 43 86 116 124 125 145 156 173 0 
-33 23 -82 4 43 86 116 124 125 145 156 172 0 
-33 23 -39 16 60 64 66 83 84 126 146 172 0 
-117 1 25 45 70 85 91 92 96 108 143 165 179 178 0 
-118 26 28 34 47 58 65 69 80 98 100 109 132 141 171 177 178 0 
-31 -119 174 0 
-117 1 25 45 70 85 91 92 96 108 143 165 174 0 
-16 39 60 64 66 83 84 126 146 -117 1 25 45 70 85 91 92 96 108 143 165 177 178 0 
-37 -120 32 42 72 73 78 107 129 131 133 147 149 166 177 178 0 
-121 139 172 0 
-27 55 57 144 -106 173 0 
-122 -6 172 0 
-102 -6 174 0 
-123 -15 88 164 -6 172 0 
-123 -67 154 155 163 173 0 
-22 8 -6 174 0 
-67 154 155 163 173 0 
-40 24 -1 25 45 70 85 91 92 96 108 117 143 165 173 0 
-44 17 35 68 -1 25 45 70 85 91 92 96 108 117 143 165 173 0 
-1 25 45 70 85 91 92 96 108 117 143 165 -34 26 28 47 58 65 69 80 98 100 109 118 132 141 171 177 178 0 
-42 32 72 73 78 107 120 129 131 133 147 149 166 172 0 
-43 4 82 86 116 124 125 145 156 176 0 
-31 -40 24 -32 42 72 73 78 107 120 129 131 133 147 149 166 172 0 
-34 26 28 47 58 65 69 80 98 100 109 118 132 141 171 176 0 
-94 176 0 
-1 25 45 70 85 91 92 96 108 117 143 165 176 0 
-124 4 43 82 86 116 125 145 156 176 0 
-82 4 43 86 116 124 125 145 156 176 0 
-125 4 43 82 86 116 124 145 156 176 0 
-126 16 39 60 64 66 83 84 146 176 0 
-31 -34 26 28 47 58 65 69 80 98 100 109 118 132 141 171 172 0 
-127 176 0 
-32 42 72 73 78 107 120 129 131 133 147 149 166 177 178 0 
-37 -34 26 28 47 58 65 69 80 98 100 109 118 132 141 171 173 0 
-128 -129 32 42 72 73 78 107 120 131 133 147 149 166 174 0 
-130 174 0 
-131 32 42 72 73 78 107 120 129 133 147 149 166 172 0 
-32 42 72 73 78 107 120 129 131 133 147 149 166 -34 26 28 47 58 65 69 80 98 100 109 118 132 141 171 177 178 0 
-31 -1 25 45 70 85 91 92 96 108 117 143 165 177 178 0 
-33 23 -34 26 28 47 58 65 69 80 98 100 109 118 132 141 171 173 0 
-1 25 45 70 85 91 92 96 108 117 143 165 -126 16 39 60 64 66 83 84 146 172 0 
-49 -39 16 60 64 66 83 84 126 146 -1 25 45 70 85 91 92 96 108 117 143 165 172 0 
-1 25 45 70 85 91 92 96 108 117 143 165 -116 4 43 82 86 124 125 145 156 172 0 
-49 -64 16 39 60 66 83 84 126 146 172 0 
-4 43 82 86 116 124 125 145 156 -2 -6 173 0 
-132 26 28 34 47 58 65 69 80 98 100 109 118 141 171 172 0 
-133 32 42 72 73 78 107 120 129 131 147 149 166 173 0 
-25 1 45 70 85 91 92 96 108 117 143 165 -6 173 0 
-27 55 57 144 -6 172 0 
-134 -106 175 0 
-135 50 74 173 0 
-136 138 172 0 
-136 138 173 0 
-137 103 105 167 172 0 
-138 136 172 0 
-139 121 -6 174 0 
-140 -6 174 0 
-101 -6 174 0 
-33 23 -46 177 178 0 
-141 26 28 34 47 58 65 69 80 98 100 109 118 132 171 172 0 
-142 172 0 
-40 24 -143 1 25 45 70 85 91 92 96 108 117 165 177 178 0 
-19 18 -14 -6 173 0 
-144 27 55 57 174 0 
-145 4 43 82 86 116 124 125 156 175 0 
-41 161 173 0 
-146 16 39 60 64 66 83 84 126 177 178 0 
-93 -94 172 0 
-147 32 42 72 73 78 107 120 129 131 133 149 166 173 0 
-40 24 175 0 
-126 16 39 60 64 66 83 84 146 -148 177 178 0 
-149 32 42 72 73 78 107 120 129 131 133 147 166 177 178 0 
-81 52 54 63 76 110 173 0 
-44 17 35 68 -24 40 176 0 
-126 16 39 60 64 66 83 84 146 -150 177 178 0 
-100 26 28 34 47 58 65 69 80 98 109 118 132 141 171 180 178 0 
-33 23 -1 25 45 70 85 91 92 96 108 117 143 165 173 0 
-37 -151 174 0 
-22 8 -40 24 -1 25 45 70 85 91 92 96 108 117 143 165 173 0 
-40 24 -39 16 60 64 66 83 84 126 146 177 178 0 
-29 77 -22 8 176 0 
-22 8 -34 26 28 47 58 65 69 80 98 100 109 118 132 141 171 173 0 
-22 8 -32 42 72 73 78 107 120 129 131 133 147 149 166 172 0 
-31 -32 42 72 73 78 107 120 129 131 133 147 149 166 172 0 
-152 172 0 
-153 79 -2 -6 172 0 
-11 -154 67 155 163 172 0 
-11 -155 67 154 163 173 0 
-156 4 43 82 86 116 124 125 145 174 0 
-98 26 28 34 47 58 65 69 80 100 109 118 132 141 171 -96 1 25 45 70 85 91 92 108 117 143 165 175 0 
-98 26 28 34 47 58 65 69 80 100 109 118 132 141 171 175 0 
-69 26 28 34 47 58 65 80 98 100 109 118 132 141 171 177 178 0 
-157 177 178 0 
-29 77 -70 1 25 45 85 91 92 96 108 117 143 165 173 0 
-73 32 42 72 78 107 120 129 131 133 147 149 166 173 0 
-23 33 -70 1 25 45 85 91 92 96 108 117 143 165 173 0 
-158 -159 174 0 
-160 174 0 
-44 17 35 68 174 0 
-27 55 57 144 -39 16 60 64 66 83 84 126 146 177 178 0 
-82 4 43 86 116 124 125 145 156 -27 55 57 144 172 0 
-161 41 173 0 
-34 26 28 47 58 65 69 80 98 100 109 118 132 141 171 -162 177 178 0 
-81 52 54 63 76 110 -6 173 0 
-163 67 154 155 172 0 
-164 15 88 -6 173 0 
-16 39 60 64 66 83 84 126 146 175 0 
-140 181 0 
-27 55 57 144 -6 173 0 
-165 1 25 45 70 85 91 92 96 108 117 143 173 0 
-165 1 25 45 70 85 91 92 96 108 117 143 172 0 
-166 32 42 72 73 78 107 120 129 131 133 147 149 172 0 
-167 103 105 137 173 0 
-168 89 90 172 0 
-139 121 174 0 
-103 105 137 167 172 0 
-5 172 0 
-169 -170 172 0 
-46 173 0 
-33 23 -1 25 45 70 85 91 92 96 108 117 143 165 177 178 0 
-171 26 28 34 47 58 65 69 80 98 100 109 118 132 141 172 0 
-1 25 45 70 85 91 92 96 108 117 143 165 -31 173 0 
-100 26 28 34 47 58 65 69 80 98 109 118 132 141 171 -149 32 42 72 73 78 107 120 129 131 133 147 166 177 178 0 
-132 26 28 34 47 58 65 69 80 98 100 109 118 141 171 177 178 0 
-123 172 0 
-12 -106 175 0 
-123 173 0 
-113 -123 172 0 
